sat
(
(define-fun S () String "")
(define-fun N () String "")
(define-fun J () String "")
(define-fun T () String "")
(define-fun X () String "")
(define-fun H () String "aaaaaaaaaaaabaaaabbb")
(define-fun I () String "")
(define-fun R () String "")
(define-fun G () String "")
(define-fun Q () String "")
(define-fun L () String "")
(define-fun Y () String "aaaabaabbbaa")
(define-fun M () String "")
(define-fun W () String "")
)
